c This is a DIMACS SAT-instances file to check the chromatic number
c 
c The file Name               : GraphR3.txt
c The number of vertices      : 40
c 
c The chosen number of colour : 3
c 
p cnf 120 400
1 41 81 0
2 42 82 0
3 43 83 0
4 44 84 0
5 45 85 0
6 46 86 0
7 47 87 0
8 48 88 0
9 49 89 0
10 50 90 0
11 51 91 0
12 52 92 0
13 53 93 0
14 54 94 0
15 55 95 0
16 56 96 0
17 57 97 0
18 58 98 0
19 59 99 0
20 60 100 0
21 61 101 0
22 62 102 0
23 63 103 0
24 64 104 0
25 65 105 0
26 66 106 0
27 67 107 0
28 68 108 0
29 69 109 0
30 70 110 0
31 71 111 0
32 72 112 0
33 73 113 0
34 74 114 0
35 75 115 0
36 76 116 0
37 77 117 0
38 78 118 0
39 79 119 0
40 80 120 0
-1 -41 0
-1 -81 0
-41 -81 0
-2 -42 0
-2 -82 0
-42 -82 0
-3 -43 0
-3 -83 0
-43 -83 0
-4 -44 0
-4 -84 0
-44 -84 0
-5 -45 0
-5 -85 0
-45 -85 0
-6 -46 0
-6 -86 0
-46 -86 0
-7 -47 0
-7 -87 0
-47 -87 0
-8 -48 0
-8 -88 0
-48 -88 0
-9 -49 0
-9 -89 0
-49 -89 0
-10 -50 0
-10 -90 0
-50 -90 0
-11 -51 0
-11 -91 0
-51 -91 0
-12 -52 0
-12 -92 0
-52 -92 0
-13 -53 0
-13 -93 0
-53 -93 0
-14 -54 0
-14 -94 0
-54 -94 0
-15 -55 0
-15 -95 0
-55 -95 0
-16 -56 0
-16 -96 0
-56 -96 0
-17 -57 0
-17 -97 0
-57 -97 0
-18 -58 0
-18 -98 0
-58 -98 0
-19 -59 0
-19 -99 0
-59 -99 0
-20 -60 0
-20 -100 0
-60 -100 0
-21 -61 0
-21 -101 0
-61 -101 0
-22 -62 0
-22 -102 0
-62 -102 0
-23 -63 0
-23 -103 0
-63 -103 0
-24 -64 0
-24 -104 0
-64 -104 0
-25 -65 0
-25 -105 0
-65 -105 0
-26 -66 0
-26 -106 0
-66 -106 0
-27 -67 0
-27 -107 0
-67 -107 0
-28 -68 0
-28 -108 0
-68 -108 0
-29 -69 0
-29 -109 0
-69 -109 0
-30 -70 0
-30 -110 0
-70 -110 0
-31 -71 0
-31 -111 0
-71 -111 0
-32 -72 0
-32 -112 0
-72 -112 0
-33 -73 0
-33 -113 0
-73 -113 0
-34 -74 0
-34 -114 0
-74 -114 0
-35 -75 0
-35 -115 0
-75 -115 0
-36 -76 0
-36 -116 0
-76 -116 0
-37 -77 0
-37 -117 0
-77 -117 0
-38 -78 0
-38 -118 0
-78 -118 0
-39 -79 0
-39 -119 0
-79 -119 0
-40 -80 0
-40 -120 0
-80 -120 0
-6 -32 0
-46 -72 0
-86 -112 0
-6 -8 0
-46 -48 0
-86 -88 0
-6 -40 0
-46 -80 0
-86 -120 0
-6 -13 0
-46 -53 0
-86 -93 0
-32 -18 0
-72 -58 0
-112 -98 0
-32 -14 0
-72 -54 0
-112 -94 0
-32 -33 0
-72 -73 0
-112 -113 0
-1 -21 0
-41 -61 0
-81 -101 0
-1 -3 0
-41 -43 0
-81 -83 0
-1 -16 0
-41 -56 0
-81 -96 0
-1 -35 0
-41 -75 0
-81 -115 0
-21 -38 0
-61 -78 0
-101 -118 0
-21 -15 0
-61 -55 0
-101 -95 0
-21 -37 0
-61 -77 0
-101 -117 0
-12 -29 0
-52 -69 0
-92 -109 0
-12 -2 0
-52 -42 0
-92 -82 0
-12 -16 0
-52 -56 0
-92 -96 0
-12 -40 0
-52 -80 0
-92 -120 0
-29 -2 0
-69 -42 0
-109 -82 0
-29 -15 0
-69 -55 0
-109 -95 0
-29 -10 0
-69 -50 0
-109 -90 0
-34 -37 0
-74 -77 0
-114 -117 0
-34 -2 0
-74 -42 0
-114 -82 0
-34 -30 0
-74 -70 0
-114 -110 0
-34 -13 0
-74 -53 0
-114 -93 0
-37 -33 0
-77 -73 0
-117 -113 0
-37 -4 0
-77 -44 0
-117 -84 0
-2 -24 0
-42 -64 0
-82 -104 0
-19 -31 0
-59 -71 0
-99 -111 0
-19 -27 0
-59 -67 0
-99 -107 0
-19 -38 0
-59 -78 0
-99 -118 0
-19 -14 0
-59 -54 0
-99 -94 0
-31 -22 0
-71 -62 0
-111 -102 0
-31 -36 0
-71 -76 0
-111 -116 0
-31 -18 0
-71 -58 0
-111 -98 0
-27 -33 0
-67 -73 0
-107 -113 0
-27 -15 0
-67 -55 0
-107 -95 0
-27 -4 0
-67 -44 0
-107 -84 0
-33 -39 0
-73 -79 0
-113 -119 0
-17 -23 0
-57 -63 0
-97 -103 0
-17 -26 0
-57 -66 0
-97 -106 0
-17 -40 0
-57 -80 0
-97 -120 0
-17 -8 0
-57 -48 0
-97 -88 0
-23 -5 0
-63 -45 0
-103 -85 0
-23 -20 0
-63 -60 0
-103 -100 0
-23 -7 0
-63 -47 0
-103 -87 0
-39 -24 0
-79 -64 0
-119 -104 0
-39 -36 0
-79 -76 0
-119 -116 0
-39 -7 0
-79 -47 0
-119 -87 0
-26 -25 0
-66 -65 0
-106 -105 0
-26 -30 0
-66 -70 0
-106 -110 0
-26 -40 0
-66 -80 0
-106 -120 0
-11 -36 0
-51 -76 0
-91 -116 0
-11 -30 0
-51 -70 0
-91 -110 0
-11 -20 0
-51 -60 0
-91 -100 0
-11 -22 0
-51 -62 0
-91 -102 0
-36 -13 0
-76 -53 0
-116 -93 0
-4 -24 0
-44 -64 0
-84 -104 0
-4 -22 0
-44 -62 0
-84 -102 0
-24 -7 0
-64 -47 0
-104 -87 0
-7 -20 0
-47 -60 0
-87 -100 0
-38 -35 0
-78 -75 0
-118 -115 0
-38 -16 0
-78 -56 0
-118 -96 0
-16 -13 0
-56 -53 0
-96 -93 0
-30 -22 0
-70 -62 0
-110 -102 0
-10 -20 0
-50 -60 0
-90 -100 0
-10 -9 0
-50 -49 0
-90 -89 0
-10 -25 0
-50 -65 0
-90 -105 0
-28 -35 0
-68 -75 0
-108 -115 0
-28 -5 0
-68 -45 0
-108 -85 0
-28 -8 0
-68 -48 0
-108 -88 0
-28 -14 0
-68 -54 0
-108 -94 0
-35 -18 0
-75 -58 0
-115 -98 0
-18 -5 0
-58 -45 0
-98 -85 0
-9 -5 0
-49 -45 0
-89 -85 0
-9 -3 0
-49 -43 0
-89 -83 0
-9 -15 0
-49 -55 0
-89 -95 0
-8 -25 0
-48 -65 0
-88 -105 0
-25 -3 0
-65 -43 0
-105 -83 0
-3 -14 0
-43 -54 0
-83 -94 0
